(set-logic QF_NRA)
(set-info :source |Benchmarks generated from hycomp (https://es-static.fbk.eu/tools/hycomp/). BMC instances of non-linear hybrid automata taken from: Alessandro Cimatti, Sergio Mover, Stefano Tonetta, A quantifier-free SMT encoding of non-linear hybrid automata, FMCAD 2012 and Alessandro Cimatti, Sergio Mover, Stefano Tonetta, Quantier-free encoding of invariants for Hybrid Systems, Formal Methods in System Design. This instance solves a BMC problem of depth 2 and uses the quantifier free encoding encoding. Contacts: Sergio Mover (mover@fbk.eu), Stefano Tonetta (tonettas@fbk.eu), Alessandro Cimatti (cimatti@fbk.eu).|)
(set-info :smt-lib-version 2.0)
(set-info :category "industrial")
(set-info :status unsat)
;; MathSAT API call trace
;; generated on Mon Mar 19 10:46:23 2012
(declare-fun b.time__AT1 () Real)
(declare-fun b.x__AT1 () Real)
(declare-fun b.event_is_timed__AT1 () Bool)
(declare-fun b.time__AT2 () Real)
(declare-fun b.counter.0__AT1 () Bool)
(declare-fun b.y__AT2 () Real)
(declare-fun b.EVENT.1__AT0 () Bool)
(declare-fun b.speed_loss__AT0 () Real)
(declare-fun b.delta__AT2 () Real)
(declare-fun b.counter.1__AT1 () Bool)
(declare-fun b.speed_x__AT0 () Real)
(declare-fun b.counter.0__AT2 () Bool)
(declare-fun b.x__AT2 () Real)
(declare-fun b.EVENT.0__AT2 () Bool)
(declare-fun b.counter.2__AT1 () Bool)
(declare-fun b.counter.1__AT2 () Bool)
(declare-fun b.time__AT0 () Real)
(declare-fun b.counter.2__AT0 () Bool)
(declare-fun b.EVENT.1__AT2 () Bool)
(declare-fun b.counter.3__AT1 () Bool)
(declare-fun b.counter.2__AT2 () Bool)
(declare-fun b.bool_atom__AT1 () Bool)
(declare-fun b.counter.3__AT2 () Bool)
(declare-fun b.x__AT0 () Real)
(declare-fun b.bool_atom__AT2 () Bool)
(declare-fun b.speed_y__AT1 () Real)
(declare-fun b.speed_x__AT2 () Real)
(declare-fun b.delta__AT1 () Real)
(declare-fun b.bool_atom__AT0 () Bool)
(declare-fun b.y__AT0 () Real)
(declare-fun b.EVENT.1__AT1 () Bool)
(declare-fun b.speed_y__AT2 () Real)
(declare-fun b.EVENT.0__AT1 () Bool)
(declare-fun b.counter.0__AT0 () Bool)
(declare-fun b.delta__AT0 () Real)
(declare-fun b.counter.1__AT0 () Bool)
(declare-fun b.y__AT1 () Real)
(declare-fun b.EVENT.0__AT0 () Bool)
(declare-fun b.speed_y__AT0 () Real)
(declare-fun b.event_is_timed__AT0 () Bool)
(declare-fun b.counter.3__AT0 () Bool)
(declare-fun b.event_is_timed__AT2 () Bool)
(declare-fun b.speed_x__AT1 () Real)
(assert (let ((.def_608 (* (- 1.0) b.speed_x__AT2)))
(let ((.def_609 (* b.speed_x__AT2 .def_608)))
(let ((.def_610 (* (- 1.0) .def_609)))
(let ((.def_641 (* 2.0 .def_610)))
(let ((.def_659 (* (- 1.0) .def_641)))
(let ((.def_660 (* b.delta__AT2 .def_659)))
(let ((.def_661 (* (- 5.0) .def_660)))
(let ((.def_549 (* (- 1.0) b.x__AT2)))
(let ((.def_621 (* b.speed_x__AT2 .def_549)))
(let ((.def_646 (* (- 5.0) .def_621)))
(let ((.def_666 (+ .def_646 .def_661)))
(let ((.def_616 (* b.x__AT2 .def_608)))
(let ((.def_644 (* (- 5.0) .def_616)))
(let ((.def_667 (+ .def_644 .def_666)))
(let ((.def_648 (* (- 49.0) b.delta__AT2)))
(let ((.def_668 (+ .def_648 .def_667)))
(let ((.def_650 (* 5.0 b.speed_y__AT2)))
(let ((.def_669 (+ .def_650 .def_668)))
(let ((.def_670 (<= .def_669 0.0 )))
(let ((.def_622 (* (- 1.0) .def_621)))
(let ((.def_617 (* (- 1.0) .def_616)))
(let ((.def_638 (+ .def_617 .def_622)))
(let ((.def_639 (+ b.speed_y__AT2 .def_638)))
(let ((.def_658 (<= .def_639 0.0 )))
(let ((.def_671 (and .def_658 .def_670)))
(let ((.def_642 (* b.delta__AT2 .def_641)))
(let ((.def_643 (* 5.0 .def_642)))
(let ((.def_652 (+ .def_646 .def_643)))
(let ((.def_653 (+ .def_644 .def_652)))
(let ((.def_654 (+ .def_648 .def_653)))
(let ((.def_655 (+ .def_650 .def_654)))
(let ((.def_656 (<= 0.0 .def_655)))
(let ((.def_640 (<= 0.0 .def_639)))
(let ((.def_657 (and .def_640 .def_656)))
(let ((.def_672 (or .def_657 .def_671)))
(let ((.def_623 (* b.delta__AT2 .def_622)))
(let ((.def_624 (* 10.0 .def_623)))
(let ((.def_618 (* b.delta__AT2 .def_617)))
(let ((.def_619 (* 10.0 .def_618)))
(let ((.def_630 (+ .def_619 .def_624)))
(let ((.def_607 (* b.delta__AT2 b.delta__AT2)))
(let ((.def_611 (* .def_607 .def_610)))
(let ((.def_612 (* 10.0 .def_611)))
(let ((.def_631 (+ .def_612 .def_630)))
(let ((.def_614 (* (- 49.0) .def_607)))
(let ((.def_632 (+ .def_614 .def_631)))
(let ((.def_605 (* b.speed_y__AT2 b.delta__AT2)))
(let ((.def_606 (* 10.0 .def_605)))
(let ((.def_633 (+ .def_606 .def_632)))
(let ((.def_595 (* b.x__AT2 .def_549)))
(let ((.def_626 (* (- 10.0) .def_595)))
(let ((.def_634 (+ .def_626 .def_633)))
(let ((.def_628 (* 10.0 b.y__AT2)))
(let ((.def_635 (+ .def_628 .def_634)))
(let ((.def_636 (<= 0.0 .def_635)))
(let ((.def_596 (<= .def_595 b.y__AT2)))
(let ((.def_637 (and .def_596 .def_636)))
(let ((.def_673 (and .def_637 .def_672)))
(let ((.def_65 (<= b.speed_loss__AT0 (/ 1 2))))
(let ((.def_62 (<= (/ 1 10) b.speed_loss__AT0)))
(let ((.def_66 (and .def_62 .def_65)))
(let ((.def_674 (and .def_66 .def_673)))
(let ((.def_250 (not b.counter.0__AT1)))
(let ((.def_240 (not b.counter.1__AT1)))
(let ((.def_600 (and .def_240 .def_250)))
(let ((.def_245 (not b.counter.2__AT1)))
(let ((.def_601 (and .def_245 .def_600)))
(let ((.def_597 (and .def_66 .def_596)))
(let ((.def_592 (not b.EVENT.0__AT2)))
(let ((.def_590 (not b.EVENT.1__AT2)))
(let ((.def_593 (or .def_590 .def_592)))
(let ((.def_6 (not b.counter.0__AT2)))
(let ((.def_4 (not b.counter.1__AT2)))
(let ((.def_583 (or .def_4 .def_6)))
(let ((.def_587 (or b.counter.3__AT2 .def_583)))
(let ((.def_584 (or b.counter.2__AT2 .def_583)))
(let ((.def_9 (not b.counter.2__AT2)))
(let ((.def_582 (or .def_6 .def_9)))
(let ((.def_585 (and .def_582 .def_584)))
(let ((.def_514 (not b.counter.3__AT2)))
(let ((.def_586 (or .def_514 .def_585)))
(let ((.def_588 (and .def_586 .def_587)))
(let ((.def_594 (and .def_588 .def_593)))
(let ((.def_598 (and .def_594 .def_597)))
(let ((.def_577 (<= 0.0 b.delta__AT1)))
(let ((.def_337 (not b.EVENT.0__AT1)))
(let ((.def_335 (not b.EVENT.1__AT1)))
(let ((.def_419 (and .def_335 .def_337)))
(let ((.def_421 (not .def_419)))
(let ((.def_578 (or .def_421 .def_577)))
(let ((.def_579 (or b.EVENT.1__AT1 .def_578)))
(let ((.def_460 (= b.bool_atom__AT1 b.bool_atom__AT2)))
(let ((.def_456 (= b.counter.0__AT2 b.counter.0__AT1)))
(let ((.def_454 (= b.counter.1__AT2 b.counter.1__AT1)))
(let ((.def_452 (= b.counter.2__AT2 b.counter.2__AT1)))
(let ((.def_451 (= b.counter.3__AT1 b.counter.3__AT2)))
(let ((.def_453 (and .def_451 .def_452)))
(let ((.def_455 (and .def_453 .def_454)))
(let ((.def_457 (and .def_455 .def_456)))
(let ((.def_573 (and .def_457 .def_460)))
(let ((.def_574 (or .def_421 .def_573)))
(let ((.def_575 (or b.EVENT.1__AT1 .def_574)))
(let ((.def_561 (* (- 10.0) b.y__AT2)))
(let ((.def_350 (* b.delta__AT1 b.delta__AT1)))
(let ((.def_357 (* (- 49.0) .def_350)))
(let ((.def_565 (+ .def_357 .def_561)))
(let ((.def_348 (* b.speed_y__AT1 b.delta__AT1)))
(let ((.def_349 (* 10.0 .def_348)))
(let ((.def_566 (+ .def_349 .def_565)))
(let ((.def_371 (* 10.0 b.y__AT1)))
(let ((.def_567 (+ .def_371 .def_566)))
(let ((.def_568 (= .def_567 0.0 )))
(let ((.def_556 (* (- 5.0) b.speed_y__AT2)))
(let ((.def_391 (* (- 49.0) b.delta__AT1)))
(let ((.def_557 (+ .def_391 .def_556)))
(let ((.def_393 (* 5.0 b.speed_y__AT1)))
(let ((.def_558 (+ .def_393 .def_557)))
(let ((.def_559 (= .def_558 0.0 )))
(let ((.def_548 (* b.speed_x__AT1 b.delta__AT1)))
(let ((.def_552 (+ .def_549 .def_548)))
(let ((.def_553 (+ b.x__AT1 .def_552)))
(let ((.def_554 (= .def_553 0.0 )))
(let ((.def_445 (= b.speed_x__AT1 b.speed_x__AT2)))
(let ((.def_555 (and .def_445 .def_554)))
(let ((.def_560 (and .def_555 .def_559)))
(let ((.def_569 (and .def_560 .def_568)))
(let ((.def_570 (or .def_421 .def_569)))
(let ((.def_442 (= b.y__AT1 b.y__AT2)))
(let ((.def_439 (= b.x__AT1 b.x__AT2)))
(let ((.def_542 (and .def_439 .def_442)))
(let ((.def_543 (and .def_445 .def_542)))
(let ((.def_448 (= b.speed_y__AT1 b.speed_y__AT2)))
(let ((.def_544 (and .def_448 .def_543)))
(let ((.def_539 (= b.delta__AT1 0.0 )))
(let ((.def_540 (and .def_419 .def_539)))
(let ((.def_541 (not .def_540)))
(let ((.def_545 (or .def_541 .def_544)))
(let ((.def_546 (or b.EVENT.1__AT1 .def_545)))
(let ((.def_531 (and .def_445 .def_448)))
(let ((.def_532 (and .def_457 .def_531)))
(let ((.def_533 (or b.bool_atom__AT1 .def_532)))
(let ((.def_506 (or .def_6 b.counter.0__AT1)))
(let ((.def_505 (or b.counter.0__AT2 .def_250)))
(let ((.def_507 (and .def_505 .def_506)))
(let ((.def_508 (and .def_4 .def_507)))
(let ((.def_509 (or b.counter.1__AT1 .def_508)))
(let ((.def_504 (or b.counter.1__AT2 .def_240)))
(let ((.def_510 (and .def_504 .def_509)))
(let ((.def_522 (and .def_9 .def_510)))
(let ((.def_523 (or b.counter.2__AT1 .def_522)))
(let ((.def_517 (and .def_4 .def_250)))
(let ((.def_518 (or b.counter.1__AT1 .def_517)))
(let ((.def_519 (and .def_504 .def_518)))
(let ((.def_520 (and b.counter.2__AT2 .def_519)))
(let ((.def_521 (or .def_245 .def_520)))
(let ((.def_524 (and .def_521 .def_523)))
(let ((.def_525 (and b.counter.3__AT2 .def_524)))
(let ((.def_526 (or b.counter.3__AT1 .def_525)))
(let ((.def_511 (and b.counter.2__AT2 .def_510)))
(let ((.def_512 (or b.counter.2__AT1 .def_511)))
(let ((.def_500 (or b.counter.1__AT2 b.counter.1__AT1)))
(let ((.def_498 (and .def_4 b.counter.0__AT2)))
(let ((.def_499 (or .def_240 .def_498)))
(let ((.def_501 (and .def_499 .def_500)))
(let ((.def_502 (and .def_9 .def_501)))
(let ((.def_503 (or .def_245 .def_502)))
(let ((.def_513 (and .def_503 .def_512)))
(let ((.def_515 (and .def_513 .def_514)))
(let ((.def_259 (not b.counter.3__AT1)))
(let ((.def_516 (or .def_259 .def_515)))
(let ((.def_527 (and .def_516 .def_526)))
(let ((.def_226 (* b.speed_y__AT1 b.speed_y__AT1)))
(let ((.def_224 (* b.speed_x__AT1 b.speed_x__AT1)))
(let ((.def_490 (+ .def_224 .def_226)))
(let ((.def_212 (* (- 1.0) b.speed_loss__AT0)))
(let ((.def_213 (+ 1.0 .def_212)))
(let ((.def_229 (* .def_213 .def_213)))
(let ((.def_491 (* .def_229 .def_490)))
(let ((.def_493 (* (- 1.0) .def_491)))
(let ((.def_487 (* b.speed_y__AT2 b.speed_y__AT2)))
(let ((.def_494 (+ .def_487 .def_493)))
(let ((.def_485 (* b.speed_x__AT2 b.speed_x__AT2)))
(let ((.def_495 (+ .def_485 .def_494)))
(let ((.def_496 (= .def_495 0.0 )))
(let ((.def_478 (* b.speed_y__AT1 .def_213)))
(let ((.def_209 (* (- 2.0) b.x__AT1)))
(let ((.def_210 (* (- 1.0) .def_209)))
(let ((.def_475 (* .def_210 .def_213)))
(let ((.def_476 (* b.speed_x__AT1 .def_475)))
(let ((.def_481 (+ .def_476 .def_478)))
(let ((.def_472 (* (- 2.0) b.x__AT2)))
(let ((.def_473 (* (- 1.0) .def_472)))
(let ((.def_474 (* b.speed_x__AT2 .def_473)))
(let ((.def_482 (+ .def_474 .def_481)))
(let ((.def_483 (+ b.speed_y__AT2 .def_482)))
(let ((.def_484 (= .def_483 0.0 )))
(let ((.def_497 (and .def_484 .def_496)))
(let ((.def_528 (and .def_497 .def_527)))
(let ((.def_471 (not b.bool_atom__AT1)))
(let ((.def_529 (or .def_471 .def_528)))
(let ((.def_211 (* b.speed_x__AT1 .def_210)))
(let ((.def_466 (+ b.speed_y__AT1 .def_211)))
(let ((.def_467 (<= 0.0 .def_466)))
(let ((.def_468 (not .def_467)))
(let ((.def_294 (* (- 1.0) b.x__AT1)))
(let ((.def_340 (* b.x__AT1 .def_294)))
(let ((.def_465 (= b.y__AT1 .def_340)))
(let ((.def_469 (and .def_465 .def_468)))
(let ((.def_470 (= b.bool_atom__AT1 .def_469)))
(let ((.def_530 (and .def_470 .def_529)))
(let ((.def_534 (and .def_530 .def_533)))
(let ((.def_535 (and .def_439 .def_534)))
(let ((.def_536 (and .def_442 .def_535)))
(let ((.def_537 (or .def_419 .def_536)))
(let ((.def_538 (or b.EVENT.1__AT1 .def_537)))
(let ((.def_547 (and .def_538 .def_546)))
(let ((.def_571 (and .def_547 .def_570)))
(let ((.def_426 (= b.time__AT1 b.time__AT2)))
(let ((.def_440 (and .def_426 .def_439)))
(let ((.def_443 (and .def_440 .def_442)))
(let ((.def_446 (and .def_443 .def_445)))
(let ((.def_449 (and .def_446 .def_448)))
(let ((.def_458 (and .def_449 .def_457)))
(let ((.def_461 (and .def_458 .def_460)))
(let ((.def_462 (or .def_335 .def_461)))
(let ((.def_429 (* (- 1.0) b.time__AT2)))
(let ((.def_432 (+ b.delta__AT1 .def_429)))
(let ((.def_433 (+ b.time__AT1 .def_432)))
(let ((.def_434 (= .def_433 0.0 )))
(let ((.def_435 (or .def_421 .def_434)))
(let ((.def_436 (or b.EVENT.1__AT1 .def_435)))
(let ((.def_427 (or .def_419 .def_426)))
(let ((.def_428 (or b.EVENT.1__AT1 .def_427)))
(let ((.def_437 (and .def_428 .def_436)))
(let ((.def_463 (and .def_437 .def_462)))
(let ((.def_423 (= .def_421 b.event_is_timed__AT2)))
(let ((.def_420 (= b.event_is_timed__AT1 .def_419)))
(let ((.def_424 (and .def_420 .def_423)))
(let ((.def_464 (and .def_424 .def_463)))
(let ((.def_572 (and .def_464 .def_571)))
(let ((.def_576 (and .def_572 .def_575)))
(let ((.def_580 (and .def_576 .def_579)))
(let ((.def_581 (and .def_335 .def_580)))
(let ((.def_599 (and .def_581 .def_598)))
(let ((.def_602 (and .def_599 .def_601)))
(let ((.def_351 (* (- 1.0) b.speed_x__AT1)))
(let ((.def_352 (* b.speed_x__AT1 .def_351)))
(let ((.def_353 (* (- 1.0) .def_352)))
(let ((.def_384 (* 2.0 .def_353)))
(let ((.def_402 (* (- 1.0) .def_384)))
(let ((.def_403 (* b.delta__AT1 .def_402)))
(let ((.def_404 (* (- 5.0) .def_403)))
(let ((.def_364 (* b.speed_x__AT1 .def_294)))
(let ((.def_389 (* (- 5.0) .def_364)))
(let ((.def_409 (+ .def_389 .def_404)))
(let ((.def_359 (* b.x__AT1 .def_351)))
(let ((.def_387 (* (- 5.0) .def_359)))
(let ((.def_410 (+ .def_387 .def_409)))
(let ((.def_411 (+ .def_391 .def_410)))
(let ((.def_412 (+ .def_393 .def_411)))
(let ((.def_413 (<= .def_412 0.0 )))
(let ((.def_365 (* (- 1.0) .def_364)))
(let ((.def_360 (* (- 1.0) .def_359)))
(let ((.def_381 (+ .def_360 .def_365)))
(let ((.def_382 (+ b.speed_y__AT1 .def_381)))
(let ((.def_401 (<= .def_382 0.0 )))
(let ((.def_414 (and .def_401 .def_413)))
(let ((.def_385 (* b.delta__AT1 .def_384)))
(let ((.def_386 (* 5.0 .def_385)))
(let ((.def_395 (+ .def_389 .def_386)))
(let ((.def_396 (+ .def_387 .def_395)))
(let ((.def_397 (+ .def_391 .def_396)))
(let ((.def_398 (+ .def_393 .def_397)))
(let ((.def_399 (<= 0.0 .def_398)))
(let ((.def_383 (<= 0.0 .def_382)))
(let ((.def_400 (and .def_383 .def_399)))
(let ((.def_415 (or .def_400 .def_414)))
(let ((.def_366 (* b.delta__AT1 .def_365)))
(let ((.def_367 (* 10.0 .def_366)))
(let ((.def_361 (* b.delta__AT1 .def_360)))
(let ((.def_362 (* 10.0 .def_361)))
(let ((.def_373 (+ .def_362 .def_367)))
(let ((.def_354 (* .def_350 .def_353)))
(let ((.def_355 (* 10.0 .def_354)))
(let ((.def_374 (+ .def_355 .def_373)))
(let ((.def_375 (+ .def_357 .def_374)))
(let ((.def_376 (+ .def_349 .def_375)))
(let ((.def_369 (* (- 10.0) .def_340)))
(let ((.def_377 (+ .def_369 .def_376)))
(let ((.def_378 (+ .def_371 .def_377)))
(let ((.def_379 (<= 0.0 .def_378)))
(let ((.def_341 (<= .def_340 b.y__AT1)))
(let ((.def_380 (and .def_341 .def_379)))
(let ((.def_416 (and .def_380 .def_415)))
(let ((.def_417 (and .def_66 .def_416)))
(let ((.def_342 (and .def_66 .def_341)))
(let ((.def_338 (or .def_335 .def_337)))
(let ((.def_328 (or .def_240 .def_250)))
(let ((.def_332 (or b.counter.3__AT1 .def_328)))
(let ((.def_329 (or b.counter.2__AT1 .def_328)))
(let ((.def_327 (or .def_245 .def_250)))
(let ((.def_330 (and .def_327 .def_329)))
(let ((.def_331 (or .def_259 .def_330)))
(let ((.def_333 (and .def_331 .def_332)))
(let ((.def_339 (and .def_333 .def_338)))
(let ((.def_343 (and .def_339 .def_342)))
(let ((.def_322 (<= 0.0 b.delta__AT0)))
(let ((.def_53 (not b.EVENT.0__AT0)))
(let ((.def_51 (not b.EVENT.1__AT0)))
(let ((.def_148 (and .def_51 .def_53)))
(let ((.def_150 (not .def_148)))
(let ((.def_323 (or .def_150 .def_322)))
(let ((.def_324 (or b.EVENT.1__AT0 .def_323)))
(let ((.def_193 (= b.bool_atom__AT0 b.bool_atom__AT1)))
(let ((.def_188 (= b.counter.0__AT0 b.counter.0__AT1)))
(let ((.def_185 (= b.counter.1__AT0 b.counter.1__AT1)))
(let ((.def_182 (= b.counter.2__AT0 b.counter.2__AT1)))
(let ((.def_180 (= b.counter.3__AT0 b.counter.3__AT1)))
(let ((.def_183 (and .def_180 .def_182)))
(let ((.def_186 (and .def_183 .def_185)))
(let ((.def_189 (and .def_186 .def_188)))
(let ((.def_318 (and .def_189 .def_193)))
(let ((.def_319 (or .def_150 .def_318)))
(let ((.def_320 (or b.EVENT.1__AT0 .def_319)))
(let ((.def_307 (* (- 10.0) b.y__AT1)))
(let ((.def_74 (* b.delta__AT0 b.delta__AT0)))
(let ((.def_83 (* (- 49.0) .def_74)))
(let ((.def_310 (+ .def_83 .def_307)))
(let ((.def_72 (* b.speed_y__AT0 b.delta__AT0)))
(let ((.def_73 (* 10.0 .def_72)))
(let ((.def_311 (+ .def_73 .def_310)))
(let ((.def_98 (* 10.0 b.y__AT0)))
(let ((.def_312 (+ .def_98 .def_311)))
(let ((.def_313 (= .def_312 0.0 )))
(let ((.def_301 (* (- 5.0) b.speed_y__AT1)))
(let ((.def_120 (* (- 49.0) b.delta__AT0)))
(let ((.def_302 (+ .def_120 .def_301)))
(let ((.def_122 (* 5.0 b.speed_y__AT0)))
(let ((.def_303 (+ .def_122 .def_302)))
(let ((.def_304 (= .def_303 0.0 )))
(let ((.def_293 (* b.speed_x__AT0 b.delta__AT0)))
(let ((.def_297 (+ .def_294 .def_293)))
(let ((.def_298 (+ b.x__AT0 .def_297)))
(let ((.def_299 (= .def_298 0.0 )))
(let ((.def_174 (= b.speed_x__AT0 b.speed_x__AT1)))
(let ((.def_300 (and .def_174 .def_299)))
(let ((.def_305 (and .def_300 .def_304)))
(let ((.def_314 (and .def_305 .def_313)))
(let ((.def_315 (or .def_150 .def_314)))
(let ((.def_171 (= b.y__AT0 b.y__AT1)))
(let ((.def_168 (= b.x__AT0 b.x__AT1)))
(let ((.def_287 (and .def_168 .def_171)))
(let ((.def_288 (and .def_174 .def_287)))
(let ((.def_177 (= b.speed_y__AT0 b.speed_y__AT1)))
(let ((.def_289 (and .def_177 .def_288)))
(let ((.def_284 (= b.delta__AT0 0.0 )))
(let ((.def_285 (and .def_148 .def_284)))
(let ((.def_286 (not .def_285)))
(let ((.def_290 (or .def_286 .def_289)))
(let ((.def_291 (or b.EVENT.1__AT0 .def_290)))
(let ((.def_276 (and .def_174 .def_177)))
(let ((.def_277 (and .def_189 .def_276)))
(let ((.def_278 (or b.bool_atom__AT0 .def_277)))
(let ((.def_251 (or b.counter.0__AT0 .def_250)))
(let ((.def_34 (not b.counter.0__AT0)))
(let ((.def_249 (or .def_34 b.counter.0__AT1)))
(let ((.def_252 (and .def_249 .def_251)))
(let ((.def_253 (and .def_240 .def_252)))
(let ((.def_254 (or b.counter.1__AT0 .def_253)))
(let ((.def_32 (not b.counter.1__AT0)))
(let ((.def_248 (or .def_32 b.counter.1__AT1)))
(let ((.def_255 (and .def_248 .def_254)))
(let ((.def_267 (and .def_245 .def_255)))
(let ((.def_268 (or b.counter.2__AT0 .def_267)))
(let ((.def_262 (and .def_34 .def_240)))
(let ((.def_263 (or b.counter.1__AT0 .def_262)))
(let ((.def_264 (and .def_248 .def_263)))
(let ((.def_265 (and b.counter.2__AT1 .def_264)))
(let ((.def_37 (not b.counter.2__AT0)))
(let ((.def_266 (or .def_37 .def_265)))
(let ((.def_269 (and .def_266 .def_268)))
(let ((.def_270 (and b.counter.3__AT1 .def_269)))
(let ((.def_271 (or b.counter.3__AT0 .def_270)))
(let ((.def_256 (and b.counter.2__AT1 .def_255)))
(let ((.def_257 (or b.counter.2__AT0 .def_256)))
(let ((.def_243 (or b.counter.1__AT0 b.counter.1__AT1)))
(let ((.def_241 (and b.counter.0__AT1 .def_240)))
(let ((.def_242 (or .def_32 .def_241)))
(let ((.def_244 (and .def_242 .def_243)))
(let ((.def_246 (and .def_244 .def_245)))
(let ((.def_247 (or .def_37 .def_246)))
(let ((.def_258 (and .def_247 .def_257)))
(let ((.def_260 (and .def_258 .def_259)))
(let ((.def_40 (not b.counter.3__AT0)))
(let ((.def_261 (or .def_40 .def_260)))
(let ((.def_272 (and .def_261 .def_271)))
(let ((.def_231 (* b.speed_y__AT0 b.speed_y__AT0)))
(let ((.def_230 (* b.speed_x__AT0 b.speed_x__AT0)))
(let ((.def_232 (+ .def_230 .def_231)))
(let ((.def_233 (* .def_229 .def_232)))
(let ((.def_235 (* (- 1.0) .def_233)))
(let ((.def_236 (+ .def_226 .def_235)))
(let ((.def_237 (+ .def_224 .def_236)))
(let ((.def_238 (= .def_237 0.0 )))
(let ((.def_217 (* b.speed_y__AT0 .def_213)))
(let ((.def_200 (* (- 2.0) b.x__AT0)))
(let ((.def_201 (* (- 1.0) .def_200)))
(let ((.def_214 (* .def_201 .def_213)))
(let ((.def_215 (* b.speed_x__AT0 .def_214)))
(let ((.def_220 (+ .def_215 .def_217)))
(let ((.def_221 (+ .def_211 .def_220)))
(let ((.def_222 (+ b.speed_y__AT1 .def_221)))
(let ((.def_223 (= .def_222 0.0 )))
(let ((.def_239 (and .def_223 .def_238)))
(let ((.def_273 (and .def_239 .def_272)))
(let ((.def_208 (not b.bool_atom__AT0)))
(let ((.def_274 (or .def_208 .def_273)))
(let ((.def_202 (* b.speed_x__AT0 .def_201)))
(let ((.def_203 (+ b.speed_y__AT0 .def_202)))
(let ((.def_204 (<= 0.0 .def_203)))
(let ((.def_205 (not .def_204)))
(let ((.def_57 (* (- 1.0) b.x__AT0)))
(let ((.def_58 (* b.x__AT0 .def_57)))
(let ((.def_198 (= b.y__AT0 .def_58)))
(let ((.def_206 (and .def_198 .def_205)))
(let ((.def_207 (= b.bool_atom__AT0 .def_206)))
(let ((.def_275 (and .def_207 .def_274)))
(let ((.def_279 (and .def_275 .def_278)))
(let ((.def_280 (and .def_168 .def_279)))
(let ((.def_281 (and .def_171 .def_280)))
(let ((.def_282 (or .def_148 .def_281)))
(let ((.def_283 (or b.EVENT.1__AT0 .def_282)))
(let ((.def_292 (and .def_283 .def_291)))
(let ((.def_316 (and .def_292 .def_315)))
(let ((.def_155 (= b.time__AT0 b.time__AT1)))
(let ((.def_169 (and .def_155 .def_168)))
(let ((.def_172 (and .def_169 .def_171)))
(let ((.def_175 (and .def_172 .def_174)))
(let ((.def_178 (and .def_175 .def_177)))
(let ((.def_190 (and .def_178 .def_189)))
(let ((.def_194 (and .def_190 .def_193)))
(let ((.def_195 (or .def_51 .def_194)))
(let ((.def_158 (* (- 1.0) b.time__AT1)))
(let ((.def_161 (+ b.delta__AT0 .def_158)))
(let ((.def_162 (+ b.time__AT0 .def_161)))
(let ((.def_163 (= .def_162 0.0 )))
(let ((.def_164 (or .def_150 .def_163)))
(let ((.def_165 (or b.EVENT.1__AT0 .def_164)))
(let ((.def_156 (or .def_148 .def_155)))
(let ((.def_157 (or b.EVENT.1__AT0 .def_156)))
(let ((.def_166 (and .def_157 .def_165)))
(let ((.def_196 (and .def_166 .def_195)))
(let ((.def_152 (= .def_150 b.event_is_timed__AT1)))
(let ((.def_149 (= b.event_is_timed__AT0 .def_148)))
(let ((.def_153 (and .def_149 .def_152)))
(let ((.def_197 (and .def_153 .def_196)))
(let ((.def_317 (and .def_197 .def_316)))
(let ((.def_321 (and .def_317 .def_320)))
(let ((.def_325 (and .def_321 .def_324)))
(let ((.def_326 (and .def_51 .def_325)))
(let ((.def_344 (and .def_326 .def_343)))
(let ((.def_35 (and .def_32 .def_34)))
(let ((.def_38 (and .def_35 .def_37)))
(let ((.def_345 (and .def_38 .def_344)))
(let ((.def_75 (* (- 1.0) b.speed_x__AT0)))
(let ((.def_76 (* b.speed_x__AT0 .def_75)))
(let ((.def_77 (* (- 1.0) .def_76)))
(let ((.def_111 (* 2.0 .def_77)))
(let ((.def_131 (* (- 1.0) .def_111)))
(let ((.def_132 (* b.delta__AT0 .def_131)))
(let ((.def_133 (* (- 5.0) .def_132)))
(let ((.def_90 (* b.speed_x__AT0 .def_57)))
(let ((.def_118 (* (- 5.0) .def_90)))
(let ((.def_138 (+ .def_118 .def_133)))
(let ((.def_85 (* b.x__AT0 .def_75)))
(let ((.def_116 (* (- 5.0) .def_85)))
(let ((.def_139 (+ .def_116 .def_138)))
(let ((.def_140 (+ .def_120 .def_139)))
(let ((.def_141 (+ .def_122 .def_140)))
(let ((.def_142 (<= .def_141 0.0 )))
(let ((.def_91 (* (- 1.0) .def_90)))
(let ((.def_86 (* (- 1.0) .def_85)))
(let ((.def_108 (+ .def_86 .def_91)))
(let ((.def_109 (+ b.speed_y__AT0 .def_108)))
(let ((.def_130 (<= .def_109 0.0 )))
(let ((.def_143 (and .def_130 .def_142)))
(let ((.def_112 (* b.delta__AT0 .def_111)))
(let ((.def_114 (* 5.0 .def_112)))
(let ((.def_124 (+ .def_118 .def_114)))
(let ((.def_125 (+ .def_116 .def_124)))
(let ((.def_126 (+ .def_120 .def_125)))
(let ((.def_127 (+ .def_122 .def_126)))
(let ((.def_128 (<= 0.0 .def_127)))
(let ((.def_110 (<= 0.0 .def_109)))
(let ((.def_129 (and .def_110 .def_128)))
(let ((.def_144 (or .def_129 .def_143)))
(let ((.def_92 (* b.delta__AT0 .def_91)))
(let ((.def_93 (* 10.0 .def_92)))
(let ((.def_87 (* b.delta__AT0 .def_86)))
(let ((.def_88 (* 10.0 .def_87)))
(let ((.def_100 (+ .def_88 .def_93)))
(let ((.def_78 (* .def_74 .def_77)))
(let ((.def_79 (* 10.0 .def_78)))
(let ((.def_101 (+ .def_79 .def_100)))
(let ((.def_102 (+ .def_83 .def_101)))
(let ((.def_103 (+ .def_73 .def_102)))
(let ((.def_96 (* (- 10.0) .def_58)))
(let ((.def_104 (+ .def_96 .def_103)))
(let ((.def_105 (+ .def_98 .def_104)))
(let ((.def_106 (<= 0.0 .def_105)))
(let ((.def_59 (<= .def_58 b.y__AT0)))
(let ((.def_107 (and .def_59 .def_106)))
(let ((.def_145 (and .def_107 .def_144)))
(let ((.def_146 (and .def_66 .def_145)))
(let ((.def_67 (and .def_59 .def_66)))
(let ((.def_54 (or .def_51 .def_53)))
(let ((.def_44 (or .def_32 .def_34)))
(let ((.def_48 (or b.counter.3__AT0 .def_44)))
(let ((.def_45 (or b.counter.2__AT0 .def_44)))
(let ((.def_43 (or .def_34 .def_37)))
(let ((.def_46 (and .def_43 .def_45)))
(let ((.def_47 (or .def_40 .def_46)))
(let ((.def_49 (and .def_47 .def_48)))
(let ((.def_55 (and .def_49 .def_54)))
(let ((.def_68 (and .def_55 .def_67)))
(let ((.def_41 (and .def_38 .def_40)))
(let ((.def_29 (= b.speed_y__AT0 1.0 )))
(let ((.def_26 (= b.speed_x__AT0 1.0 )))
(let ((.def_22 (= b.y__AT0 10.0 )))
(let ((.def_18 (= b.x__AT0 0.0 )))
(let ((.def_14 (= b.time__AT0 0.0 )))
(let ((.def_16 (and .def_14 b.event_is_timed__AT0)))
(let ((.def_19 (and .def_16 .def_18)))
(let ((.def_23 (and .def_19 .def_22)))
(let ((.def_27 (and .def_23 .def_26)))
(let ((.def_30 (and .def_27 .def_29)))
(let ((.def_42 (and .def_30 .def_41)))
(let ((.def_69 (and .def_42 .def_68)))
(let ((.def_7 (and .def_4 .def_6)))
(let ((.def_10 (and .def_7 .def_9)))
(let ((.def_11 (not .def_10)))
(let ((.def_70 (and .def_11 .def_69)))
(let ((.def_147 (and .def_70 .def_146)))
(let ((.def_346 (and .def_147 .def_345)))
(let ((.def_418 (and .def_346 .def_417)))
(let ((.def_603 (and .def_418 .def_602)))
(let ((.def_675 (and .def_603 .def_674)))
.def_675))))))))))))))))))))))))))))))))))))))))))))))))))))))))))))))))))))))))))))))))))))))))))))))))))))))))))))))))))))))))))))))))))))))))))))))))))))))))))))))))))))))))))))))))))))))))))))))))))))))))))))))))))))))))))))))))))))))))))))))))))))))))))))))))))))))))))))))))))))))))))))))))))))))))))))))))))))))))))))))))))))))))))))))))))))))))))))))))))))))))))))))))))))))))))))))))))))))))))))))))))))))))))))))))))))))))))))))))))))))))))))))))))))))))))))))))))))))))))))))))))))))))))))))))))))))))))))))))))))))))))))))))))))))))))))))))))))
(check-sat)
(exit)
